Minimize
+ 3 x_0 + 2 x_1 + 3 x_2 + 2 x_3 + 4 x_4 
+ 4 x_5 + 2 x_6 + 3 x_7 + 2 x_8 + 4 x_9 
+ 2 x_10 + 4 x_11 + 2 x_12 + 4 x_13 + 2 x_14 
+ 1 x_15 + 1 x_16 + 1 x_17 + 1 x_18 + 1 x_19 
+ 1 x_20 + 1 x_21 + 1 x_22 + 1 x_23 + 1 x_24 
+ 1 x_25 + 1 x_26 + 1 x_27 + 1 x_28 + 1 x_29 
+ 163 x_30 + 105 x_31 + 192 x_32 + 192 x_33 + 104 x_34 
+ 158 x_35 + 200 x_36 + 173 x_37 + 192 x_38 + 181 x_39 
+ 115 x_40 + 192 x_41 + 122 x_42 + 137 x_43 + 159 x_44 
subject to
constr_0: + x_0 - x_15 = 0
constr_1: + x_1 + x_15 - x_16 = 14
constr_2: + x_2 + x_16 - x_17 = 10
constr_3: + x_3 + x_17 - x_18 = 3
constr_4: + x_4 + x_18 - x_19 = 18
constr_5: + x_5 - x_20 = 8
constr_6: + x_6 + x_20 - x_21 = 18
constr_7: + x_7 + x_21 - x_22 = 5
constr_8: + x_8 + x_22 - x_23 = 3
constr_9: + x_9 + x_23 - x_24 = 11
constr_10: + x_10 - x_25 = 9
constr_11: + x_11 + x_25 - x_26 = 18
constr_12: + x_12 + x_26 - x_27 = 30
constr_13: + x_13 + x_27 - x_28 = 17
constr_14: + x_14 + x_28 - x_29 = 2
constr_15: + x_15 + x_20 + x_25 <= 90
constr_16: + x_16 + x_21 + x_26 <= 90
constr_17: + x_17 + x_22 + x_27 <= 90
constr_18: + x_18 + x_23 + x_28 <= 90
constr_19: + x_19 + x_24 + x_29 <= 90
constr_20: + x_0 - 80 x_30 <= 0
constr_21: + x_1 - 80 x_31 <= 0
constr_22: + x_2 - 80 x_32 <= 0
constr_23: + x_3 - 80 x_33 <= 0
constr_24: + x_4 - 80 x_34 <= 0
constr_25: + x_5 - 80 x_35 <= 0
constr_26: + x_6 - 80 x_36 <= 0
constr_27: + x_7 - 80 x_37 <= 0
constr_28: + x_8 - 80 x_38 <= 0
constr_29: + x_9 - 80 x_39 <= 0
constr_30: + x_10 - 80 x_40 <= 0
constr_31: + x_11 - 80 x_41 <= 0
constr_32: + x_12 - 80 x_42 <= 0
constr_33: + x_13 - 80 x_43 <= 0
constr_34: + x_14 - 80 x_44 <= 0
constr_35: + 1 x_0 + 0 x_30 + 1 x_5 + 0 x_35 + 1 x_10 
+ 0 x_40 <= 90
constr_36: + 1 x_1 + 0 x_31 + 1 x_6 + 0 x_36 + 1 x_11 
+ 0 x_41 <= 90
constr_37: + 1 x_2 + 0 x_32 + 1 x_7 + 0 x_37 + 1 x_12 
+ 0 x_42 <= 90
constr_38: + 1 x_3 + 0 x_33 + 1 x_8 + 0 x_38 + 1 x_13 
+ 0 x_43 <= 90
constr_39: + 1 x_4 + 0 x_34 + 1 x_9 + 0 x_39 + 1 x_14 
+ 0 x_44 <= 90
Binaries
x_30
x_31
x_32
x_33
x_34
x_35
x_36
x_37
x_38
x_39
x_40
x_41
x_42
x_43
x_44
End
